p cnf 130 471
-1 -2 -3 0
1 2 -3 0
-1 2 3 0
1 -2 3 0
-6 4 0
-6 5 0
-4 -5 6 0
7 8 -9 0
-7 -8 -9 0
7 -8 9 0
-7 8 9 0
-9 10 -11 0
9 -10 -11 0
-9 -10 11 0
9 10 11 0
-12 6 0
-12 -11 0
-6 11 12 0
-13 10 -14 0
13 -10 -14 0
-13 -10 14 0
13 10 14 0
15 7 0
15 7 0
-7 -15 0
-16 14 0
-16 15 0
-14 -15 16 0
17 -12 0
17 16 0
12 -16 -17 0
3 -17 -18 0
-3 17 -18 0
3 17 18 0
-3 -17 18 0
22 -20 0
22 -21 0
20 21 -22 0
22 20 -23 0
-22 -20 -23 0
22 -20 23 0
-22 20 23 0
10 23 -24 0
-10 -23 -24 0
10 -23 24 0
-10 23 24 0
13 24 -25 0
-13 -24 -25 0
13 -24 25 0
-13 24 25 0
-19 25 -26 0
19 -25 -26 0
-19 -25 26 0
19 25 26 0
-27 6 0
-27 -14 0
-6 14 27 0
28 -25 0
28 27 0
25 -27 -28 0
26 -28 -29 0
-26 28 -29 0
26 28 29 0
-26 -28 29 0
-30 -22 0
-30 21 0
22 -21 30 0
5 8 -31 0
-5 -8 -31 0
5 -8 31 0
-5 8 31 0
-30 -31 -32 0
30 31 -32 0
-30 31 32 0
30 -31 32 0
24 -25 -33 0
-24 25 -33 0
24 25 33 0
-24 -25 33 0
-31 33 -34 0
31 -33 -34 0
-31 -33 34 0
31 33 34 0
35 -32 0
35 34 0
32 -34 -35 0
-36 35 0
-36 5 0
-35 -5 36 0
-37 25 0
-37 14 0
-25 -14 37 0
-38 -7 0
-38 -37 0
7 37 38 0
-39 -20 0
-39 19 0
20 -19 39 0
38 -39 -40 0
-38 39 -40 0
38 39 40 0
-38 -39 40 0
36 -40 -41 0
-36 40 -41 0
36 40 41 0
-36 -40 41 0
29 41 -42 0
-29 -41 -42 0
29 -41 42 0
-29 41 42 0
-18 42 -43 0
18 -42 -43 0
-18 -42 43 0
18 42 43 0
45 -44 0
45 13 0
44 -13 -45 0
46 -22 0
46 -34 0
22 34 -46 0
-11 46 -47 0
11 -46 -47 0
-11 -46 47 0
11 46 47 0
48 -45 0
48 -47 0
45 47 -48 0
16 -19 -49 0
-16 19 -49 0
16 19 49 0
-16 -19 49 0
50 49 0
50 -1 0
-49 1 -50 0
20 -50 -51 0
-20 50 -51 0
20 50 51 0
-20 -50 51 0
-48 51 -52 0
48 -51 -52 0
-48 -51 52 0
48 51 52 0
-53 43 0
-53 52 0
-43 -52 53 0
9 14 -54 0
-9 -14 -54 0
9 -14 54 0
-9 14 54 0
55 54 0
55 -1 0
-54 1 -55 0
-55 -30 -56 0
55 30 -56 0
-55 30 56 0
55 -30 56 0
-57 8 0
-57 -39 0
-8 39 57 0
58 49 0
58 -45 0
-49 45 -58 0
59 4 0
59 21 0
-4 -21 -59 0
-60 -13 0
-60 21 0
13 -21 60 0
-61 59 0
-61 -60 0
-59 60 61 0
-62 -54 0
-62 -61 0
54 61 62 0
-63 -58 0
-63 -62 0
58 62 63 0
57 63 -64 0
-57 -63 -64 0
57 -63 64 0
-57 63 64 0
-65 22 0
-65 -20 0
-22 20 65 0
65 23 -66 0
-65 -23 -66 0
65 -23 66 0
-65 23 66 0
-67 -64 0
-67 -66 0
64 66 67 0
68 -56 0
68 67 0
56 -67 -68 0
-69 -25 0
-69 5 0
25 -5 69 0
70 45 0
70 30 0
-45 -30 -70 0
71 -69 0
71 70 0
69 -70 -71 0
-71 34 -72 0
71 -34 -72 0
-71 -34 72 0
71 34 72 0
-73 -13 0
-73 -10 0
13 10 73 0
74 72 0
74 -73 0
-72 73 -74 0
-75 68 0
-75 74 0
-68 -74 75 0
-76 8 0
-76 22 0
-8 -22 76 0
77 76 0
77 45 0
-76 -45 -77 0
-78 77 0
-78 11 0
-77 -11 78 0
-8 -79 -80 0
8 79 -80 0
-8 79 80 0
8 -79 80 0
81 80 0
81 -59 0
-80 59 -81 0
82 -79 0
82 81 0
79 -81 -82 0
-78 82 -83 0
78 -82 -83 0
-78 -82 83 0
78 82 83 0
84 59 0
84 22 0
-59 -22 -84 0
-85 83 0
-85 84 0
-83 -84 85 0
15 86 -87 0
-15 -86 -87 0
15 -86 87 0
-15 86 87 0
-88 -2 0
-88 8 0
2 -8 88 0
88 -7 -89 0
-88 7 -89 0
88 7 89 0
-88 -7 89 0
-89 45 -90 0
89 -45 -90 0
-89 -45 90 0
89 45 90 0
87 -90 -91 0
-87 90 -91 0
87 90 91 0
-87 -90 91 0
-92 2 0
-92 4 0
-2 -4 92 0
92 -77 -93 0
-92 77 -93 0
92 77 93 0
-92 -77 93 0
94 19 0
94 -23 0
-19 23 -94 0
95 32 0
95 -94 0
-32 94 -95 0
93 -95 -96 0
-93 95 -96 0
93 95 96 0
-93 -95 96 0
91 -96 -97 0
-91 96 -97 0
91 96 97 0
-91 -96 97 0
-85 -97 -98 0
85 97 -98 0
-85 97 98 0
85 -97 98 0
99 -59 0
99 -25 0
59 25 -99 0
-100 34 0
-100 99 0
-34 -99 100 0
101 -19 0
101 19 0
-102 -100 0
-102 101 0
100 -101 102 0
103 49 0
103 -88 0
-49 88 -103 0
-104 47 0
-104 -54 0
-47 54 104 0
-105 -103 0
-105 104 0
103 -104 105 0
106 59 0
106 19 0
-59 -19 -106 0
-107 106 0
-107 -65 0
-106 65 107 0
-108 105 0
-108 107 0
-105 -107 108 0
109 -102 0
109 108 0
102 -108 -109 0
-110 98 0
-110 -109 0
-98 109 110 0
-111 -75 0
-111 -110 0
75 110 111 0
-112 -53 0
-112 111 0
53 -111 112 0
113 -88 0
113 27 0
88 -27 -113 0
114 -37 0
114 -54 0
37 54 -114 0
-113 114 -115 0
113 -114 -115 0
-113 -114 115 0
113 114 115 0
-116 44 0
-116 -81 0
-44 81 116 0
-117 -116 0
-117 -8 0
116 8 117 0
39 -44 -118 0
-39 44 -118 0
39 44 118 0
-39 -44 118 0
-119 -61 0
-119 30 0
61 -30 119 0
120 119 0
120 -60 0
-119 60 -120 0
-118 120 -121 0
118 -120 -121 0
-118 -120 121 0
118 120 121 0
117 121 -122 0
-117 -121 -122 0
117 -121 122 0
-117 121 122 0
-123 -115 0
-123 -122 0
115 122 123 0
124 33 0
124 4 0
-33 -4 -124 0
125 -61 0
125 19 0
61 -19 -125 0
124 -125 -126 0
-124 125 -126 0
124 125 126 0
-124 -125 126 0
-123 126 -127 0
123 -126 -127 0
-123 -126 127 0
123 126 127 0
70 79 -128 0
-70 -79 -128 0
70 -79 128 0
-70 79 128 0
-129 127 0
-129 128 0
-127 -128 129 0
-112 -129 -130 0
112 129 -130 0
-112 129 130 0
112 -129 130 0
65 15 0
-102 -123 78 0
45 -7 66 2 0
-93 -60 -103 0
-65 97 -67 -25 0
67 -100 0
-77 -128 0
-18 28 0
-107 29 0
-81 36 -100 0
-125 53 -81 -109 -92 56 0
37 99 77 -72 47 -81 0
105 -39 53 0
41 31 -29 -113 0
117 67 -72 11 68 0
-65 -128 -83 40 0
130 -104 38 -64 0
43 114 -39 -46 -34 21 0
87 -61 32 -82 69 0
-114 13 47 0
-45 -85 -117 0
106 93 -21 -38 -125 86 0
30 69 -59 46 0
-73 97 -94 57 111 -9 0
61 -46 94 103 -89 51 0
101 -80 17 29 60 -62 0
-3 120 29 -56 0
12 -24 -68 -107 0
-49 -83 -105 25 0
-56 53 15 0
-62 -20 86 -122 -8 28 0
-102 18 84 -88 42 1 0
85 121 129 -78 -120 0
-3 102 -60 -65 83 19 0
40 128 -14 0
-6 72 -36 44 0
-117 -86 0
-1 -72 -48 29 94 -108 0
94 88 -31 -105 0
122 31 0
11 108 0
-90 99 6 85 -11 0
-46 -44 -84 115 -105 0
66 -105 0
-21 57 -92 91 -73 120 0
-45 -60 -116 18 0
60 47 -55 0
88 -48 128 56 57 86 0
116 43 0
54 -122 36 86 61 0
-35 7 115 -23 0
-26 47 -7 0
-22 -95 -86 -81 14 0
-44 -130 0
-47 -26 29 -86 0
-65 -89 73 117 -20 -23 0
-56 -98 0
2 -50 -107 0
-122 -32 -25 76 0
100 -80 0
-22 106 27 0
-70 -23 42 43 0
71 -43 5 -53 121 -23 0
-83 1 90 0
89 109 38 21 29 49 0
74 78 -85 -110 -47 -58 0
-37 12 0
-46 81 -30 0
29 -84 45 60 4 0
-3 -120 0
73 29 16 45 128 0
-70 -112 29 39 -45 0
17 89 121 -36 85 -11 0
76 -65 19 56 -14 0
-123 22 35 -46 120 0
103 -52 61 -129 9 0
36 -16 0
-5 -11 -50 -104 120 -81 0
130 0
